DATASET = "thpack1";
INSTANCE = "026";

WIDTH = 233;
HEIGHT = 220;
LENGTH = 587;

NO_OF_SHAPES = 3;
size = [|
  86,71,41 |
  75,58,58 |
  100,81,27 |
|];

verticality = [|
  0,1,1 |
  1,1,1 |
  0,0,1 |
|];

box_count = [
  46,
  41,
  37,
];
